
Gurobi 11.0.3 (linux64) logging started Thu Nov 21 23:06:40 2024

Set parameter LogFile to value "/home/yihong/Coding/OR_SUC/SUC_results_bigM100000_thread4/case24_ieee_rts_theta0.5_epsilon0.05_gurobi_seed890000_num_gen100_N_WDR100_load_scaling_factor1_proposed_T8quadra_cost.txt"
Set parameter TimeLimit to value 3600
Gurobi Optimizer version 11.0.3 build v11.0.3rc0 (linux64 - "Ubuntu 20.04.6 LTS")

CPU model: AMD EPYC 7532 32-Core Processor, instruction set [SSE2|AVX|AVX2]
Thread count: 64 physical cores, 128 logical processors, using up to 4 threads

Optimize a model with 18854 rows, 10021 columns and 437434 nonzeros
Model fingerprint: 0x89f4e898
Model has 800 quadratic constraints
Variable types: 9221 continuous, 800 integer (800 binary)
Coefficient statistics:
  Matrix range     [3e-04, 2e+03]
  QMatrix range    [2e-03, 8e-03]
  QLMatrix range   [9e-02, 6e+01]
  Objective range  [1e+00, 1e+00]
  Bounds range     [1e+00, 1e+00]
  RHS range        [1e+00, 9e+03]
Presolve removed 15519 rows and 4370 columns
Presolve time: 0.11s
Presolved: 3335 rows, 5651 columns, 19267 nonzeros
Presolved model has 800 quadratic constraint(s)
Variable types: 4851 continuous, 800 integer (800 binary)

Root relaxation: objective 1.789335e+04, 2589 iterations, 0.05 seconds (0.06 work units)

    Nodes    |    Current Node    |     Objective Bounds      |     Work
 Expl Unexpl |  Obj  Depth IntInf | Incumbent    BestBd   Gap | It/Node Time

H    0     0                    263019.39606 17893.3517  93.2%     -    0s
*    0     0               0    263019.39606 17893.3517  93.2%     -    0s
     0     0 145029.859    0  229 263019.396 145029.859  44.9%     -    0s
     0     0 244670.216    0   12 263019.396 244670.216  6.98%     -    0s
     0     0 244680.953    0   12 263019.396 244680.953  6.97%     -    0s
     0     0 244709.166    0   16 263019.396 244709.166  6.96%     -    0s
     0     0 244711.043    0   16 263019.396 244711.043  6.96%     -    0s
     0     0 244711.587    0   16 263019.396 244711.587  6.96%     -    0s
     0     2 244712.338    0   16 263019.396 244712.338  6.96%     -    0s
H   51    52                    244734.89624 244719.576  0.01%  20.5    0s
*   51    52               9    244734.89624 244719.576  0.01%  20.5    0s

Cutting planes:
  Gomory: 87
  Lift-and-project: 9
  Implied bound: 169
  MIR: 45
  Flow cover: 118
  RLT: 131
  Relax-and-lift: 33

Explored 73 nodes (7676 simplex iterations) in 1.08 seconds (1.18 work units)
Thread count was 4 (of 128 available processors)

Solution count 3: 244735 244735 263019 

Optimal solution found (tolerance 1.00e-03)
Warning: max constraint violation (2.2222e-07) exceeds tolerance
Best objective 2.447348962423e+05, best bound 2.447195764458e+05, gap 0.0063%
